120
[12,13,14,15,16,17,18,19,20,21,22,23,24,25,26,27,28,29,30,31,32,33,34,35,36,37,38,39,40,41,42,43,44,45,46,47,48,49,50,51,52,53,54,55,56,57,58,59,60,61,62,63,64,65,66,67,68,69,70,71,72,73,74,75,76,77,78,79,80,81,82,83,84,85,86,87,88,89,90,91,92,93,94,95,96]
[9,9,11,3,9,5,5,6,7,4,2,10,1,10,6,4,3,4,8,4,5,10,5,13,3,7,4,8,2,2,7,6,1,4,8,7,7,6,5,5,4,8,6,9,7,9,1,5,10,2,5,7,6,9,3,7,8,4,6,6,4,7,8,5,3,11,8,7,3,5,7,4,5,2,10,3,5,4,5,7,4,4,8,5,9]
